2305	2	2
0	4.6	7.1	0	1
1	5	5.6	0	1
2	5.7	11.4	20	0	5	10	19
3	4.4	12.3	0	1	7	16	8
4	2.8	14.3	0	1	14
5	3.2	10.3	15	0	2	10	19
6	3.5	9.8	15	0
7	4.4	8.4	10	0	3	16	8
8	7.8	11	20	0	3	7	16
9	8.8	9.8	0	1	12
10	7.7	8.2	20	0	2	5	19
11	6.3	7.9	15	0	15	18	20
12	5.4	8.2	10	0	9
13	5.8	6.8	10	0	17
14	6.7	5.8	25	0	4
15	13.8	13.1	40	0	11	18	20
16	14.1	14.2	40	0	3	7	8
17	11.2	13.6	30	0	13
18	9.7	16.4	30	0	11	15	20
19	9.5	18.8	50	0	2	5	10
20	4.7	16.8	30	0	11	15	18
